(set-info :smt-lib-version 2.6)
(set-logic QF_SLIA)
(set-info :source |
Generated by: Joel Day, Thorsten Ehlers, Mitja Kulczynski, Federico Mora, Florin Manea, Dirk Nowotka, Danny Poulsen, Zhengyang Lu
Application: Test WOORPJE
Target solver: WOORPJE
Publications: Day, J. D., Ehlers, T., Kulczynski, M., Manea, F., Nowotka, D., & Poulsen, D. B. (2019). On solving word equations using SAT. In RP 2019
Description: Enriches a system of 30 word equations by suitable linear constraints
|)
(set-info :license "https://creativecommons.org/licenses/by/4.0/")
(set-info :category "random")
(set-info :status unknown)

(declare-fun I () String)
(declare-fun F () String)
(declare-fun A () String)
(declare-fun C () String)
(declare-fun D () String)
(assert (= (str.++  D "eeef" I "aaeebdcdbff")  (str.++  F "edbbeeeeef" A "aaeebdcdbff") ))
(assert (= (str.++  "eeddcceabbffaacbfbbcadcffcbbbebdbdbeabfb" "")  (str.++  "eeddcceabbffaacbfbbcadcffcb" C "bdbdbeabfb") ))
(assert (= (str.++  "fcfbaeacecdcafeccffcffbeeffcbdebbad" C "fb")  (str.++  "fcfbaeacecdcafeccffcffbeeffcbdebbad" C "fb") ))
(assert (>=(* (str.len A) 1) 7))
(assert (<=(* (str.len A) 9) 1296))
(assert (>=(* (str.len F) 14) 70))
(assert (<=(* (str.len F) 8) 152))
(assert (>=(* (str.len C) 7) 14))
(assert (>=(* (str.len I) 18) 72))
(assert (<=(* (str.len I) 7) 714))
(check-sat)

(exit)
